c FILE			: sample.gr
c No. of vertices	: 9
c No. of directed edges	: 
c Max. weight		: 100
c Min. weight		: 1
c A directed arc from u to v of weight w
c is represented below as ' a  u  v  w '
p sp 11 20 
a 1 2 8
a 1 7 9
a 1 8 10
a 1 9 6
a 1 10 12
a 1 11 3
a 2 3 10
a 2 5 2
a 2 11 7
a 3 4 9
a 3 11 5
a 4 5 13
a 4 6 12
a 5 6 10
a 5 7 6
a 6 7 8
a 7 8 7
a 8 9 3
a 9 10 10
a 10 11 8
